//Funcao Obj
min:400+100r01+200r02+1000+300r11+600r12+300+100r31+200r32+2000+400r41+800r42+1000+800r51+1600r52+800+90r61+180r62+900+600+100r81+200r82+1600+500r101+1000r102+1400+300r111+600r112;


/* Restricoes */
//ri+r01+r11+r31+r41+r51+r61+r7+r81+r101+r111+r02+r12+r32+r42+r52+r62+r82+r102+r112=4;

tf<=23;
/* Limite superior de reducao  */

ri=0;
r71=0;
r72=0;
r01<=0.5;
r11<=1;
r31<=0.5;
r41<=1;
r51<=0.5;
r61<=1;
r81<=0.5;
r101<=0.5;
r111<=1;


r02<=0.5;
r12<=1;
r32<=0.5;
r42<=2;
r52<=0.5;
r62<=1;
r82<=0.5;
r102<=0.5;
r112<=1;

//Precidencias temporais
t0>=0;
t1>=4-r01-r02+t0;
t3>=6-r11-r12+t1;
t3>=9-r41-r42+t4;
t3>=4-r51-r52+t5;
t4>=4-r01-r02+t0;
t4>=6-r71-r72+t7;
t5>=9-r41-r42+t4;
t5>=4-r81-r82+t8;
t6>=0;
t7>=5-r61-r62+t6;
t8>=6-r71-r72+t7;
t8>=8-r101-r102+t10;
t10>=5-r61-r62+t6;
t11>=8-r101-r102+t10;
tf>=2-r31-r32+t3;
tf>=4-r51-r52+t5;
tf>=4-r81-r82+t8;
tf>=7-r111-r112+t11;

